; --full-saturate-quant --inst-when=full-last-call --inst-no-entail --term-db-mode=relevant --random-seed=1 --lang=smt2 --tlimit 646
;(set-option :produce-unsat-cores true)
(set-logic ALL_SUPPORTED)
(declare-sort A$ 0)
(declare-sort Nat$ 0)
(declare-sort A_set$ 0)
(declare-sort A_nat_fun$ 0)
(declare-sort A_a_tree_fun$ 0)
(declare-datatypes () ((A_tree$ (leaf$ (select$ Nat$) (selecta$ A$)) (innerNode$ (selectb$ Nat$) (selectc$ A_tree$) (selectd$ A_tree$)))
  (A_tree_list$ (nil$) (cons$ (hd$ A_tree$) (tl$ A_tree_list$)))))
(declare-fun a$ () A$)
(declare-fun t$ () A_tree$)
(declare-fun cost$ (A_tree$) Nat$)
(declare-fun freq$ (A_tree$) A_nat_fun$)
(declare-fun plus$ (Nat$ Nat$) Nat$)
(declare-fun zero$ () Nat$)
(declare-fun depth$ (A_tree$ A$) Nat$)
(declare-fun freq_F$ (A_tree_list$) A_nat_fun$)
(declare-fun member$ (A$ A_set$) Bool)
(declare-fun fun_app$ (A_a_tree_fun$ A$) A_tree$)
(declare-fun huffman$ (A_tree_list$) A_tree$)
(declare-fun less_eq$ (Nat$ Nat$) Bool)
(declare-fun optimum$ (A_tree$) Bool)
(declare-fun sibling$ (A_tree$ A$) A$)
(declare-fun alphabet$ (A_tree$) A_set$)
(declare-fun fun_app$a (A_nat_fun$ A$) Nat$)
(declare-fun consistent$ (A_tree$) Bool)
(declare-fun swapLeaves$ (A_tree$ Nat$ A$ Nat$) A_a_tree_fun$)
(declare-fun uniteTrees$ (A_tree$ A_tree$) A_tree$)
(assert (! (not (= (fun_app$ (swapLeaves$ t$ (fun_app$a (freq$ t$) a$) a$ (fun_app$a (freq$ t$) a$)) a$) t$)) :named a0))
(assert (! (consistent$ t$) :named a1))
(assert (! (forall ((?v0 A$) (?v1 A_tree$) (?v2 Nat$) (?v3 Nat$)) (! (=> (not (member$ ?v0 (alphabet$ ?v1))) (= (fun_app$ (swapLeaves$ ?v1 ?v2 ?v0 ?v3) ?v0) ?v1)) :pattern ((swapLeaves$ ?v1 ?v2 ?v0 ?v3)))) :named a2))
(assert (! (forall ((?v0 A_tree$) (?v1 A$)) (=> (consistent$ ?v0) (= (sibling$ ?v0 (sibling$ ?v0 ?v1)) ?v1))) :named a3))
(assert (! (forall ((?v0 Nat$) (?v1 A$) (?v2 Nat$) (?v3 A$) (?v4 Nat$) (?v5 A$)) (! (= (fun_app$ (swapLeaves$ (leaf$ ?v0 ?v1) ?v2 ?v3 ?v4) ?v5) (ite (= ?v1 ?v3) (leaf$ ?v4 ?v5) (ite (= ?v1 ?v5) (leaf$ ?v2 ?v3) (leaf$ ?v0 ?v1)))) :pattern ((fun_app$ (swapLeaves$ (leaf$ ?v0 ?v1) ?v2 ?v3 ?v4) ?v5)))) :named a4))
(assert (! (forall ((?v0 Nat$) (?v1 A_tree$) (?v2 A_tree$) (?v3 Nat$) (?v4 A$) (?v5 Nat$) (?v6 A$)) (! (= (fun_app$ (swapLeaves$ (innerNode$ ?v0 ?v1 ?v2) ?v3 ?v4 ?v5) ?v6) (innerNode$ ?v0 (fun_app$ (swapLeaves$ ?v1 ?v3 ?v4 ?v5) ?v6) (fun_app$ (swapLeaves$ ?v2 ?v3 ?v4 ?v5) ?v6))) :pattern ((fun_app$ (swapLeaves$ (innerNode$ ?v0 ?v1 ?v2) ?v3 ?v4 ?v5) ?v6)))) :named a5))
(assert (! (forall ((?v0 A_tree$) (?v1 A$) (?v2 A$)) (=> (and (consistent$ ?v0) (= (sibling$ ?v0 ?v1) ?v2)) (= (sibling$ ?v0 ?v2) ?v1))) :named a6))
(assert (! (forall ((?v0 Nat$) (?v1 A$)) (! (= (consistent$ (leaf$ ?v0 ?v1)) true) :pattern ((leaf$ ?v0 ?v1)))) :named a7))
(assert (! (forall ((?v0 A_tree$) (?v1 A$)) (=> (consistent$ ?v0) (= (depth$ ?v0 (sibling$ ?v0 ?v1)) (depth$ ?v0 ?v1)))) :named a8))
(assert (! (forall ((?v0 A_tree$) (?v1 A_tree$) (?v2 A$)) (= (fun_app$a (freq$ (uniteTrees$ ?v0 ?v1)) ?v2) (plus$ (fun_app$a (freq$ ?v0) ?v2) (fun_app$a (freq$ ?v1) ?v2)))) :named a9))
(assert (! (forall ((?v0 A_tree$)) (= (optimum$ ?v0) (forall ((?v1 A_tree$)) (=> (and (consistent$ ?v1) (and (= (alphabet$ ?v0) (alphabet$ ?v1)) (= (freq$ ?v0) (freq$ ?v1)))) (less_eq$ (cost$ ?v0) (cost$ ?v1)))))) :named a10))
(assert (! (forall ((?v0 A$) (?v1 A_tree$)) (! (=> (not (member$ ?v0 (alphabet$ ?v1))) (= (fun_app$a (freq$ ?v1) ?v0) zero$)) :pattern ((fun_app$a (freq$ ?v1) ?v0)))) :named a11))
(assert (! (forall ((?v0 Nat$) (?v1 A$) (?v2 A$)) (! (= (fun_app$a (freq$ (leaf$ ?v0 ?v1)) ?v2) (ite (= ?v2 ?v1) ?v0 zero$)) :pattern ((fun_app$a (freq$ (leaf$ ?v0 ?v1)) ?v2)))) :named a12))
(assert (! (forall ((?v0 A_tree_list$)) (=> (not (= ?v0 nil$)) (= (freq$ (huffman$ ?v0)) (freq_F$ ?v0)))) :named a13))
(assert (! (forall ((?v0 Nat$) (?v1 A_tree$) (?v2 A_tree$) (?v3 Nat$) (?v4 A_tree$) (?v5 A_tree$)) (= (= (innerNode$ ?v0 ?v1 ?v2) (innerNode$ ?v3 ?v4 ?v5)) (and (= ?v0 ?v3) (and (= ?v1 ?v4) (= ?v2 ?v5))))) :named a14))
(assert (! (forall ((?v0 Nat$) (?v1 A$) (?v2 Nat$) (?v3 A$)) (= (= (leaf$ ?v0 ?v1) (leaf$ ?v2 ?v3)) (and (= ?v0 ?v2) (= ?v1 ?v3)))) :named a15))
(assert (! (forall ((?v0 A$) (?v1 A_tree$)) (! (=> (not (member$ ?v0 (alphabet$ ?v1))) (= (sibling$ ?v1 ?v0) ?v0)) :pattern ((sibling$ ?v1 ?v0)))) :named a16))
(assert (! (forall ((?v0 Nat$) (?v1 Nat$) (?v2 A_tree$) (?v3 A_tree$) (?v4 A_tree$) (?v5 A$)) (! (= (sibling$ (innerNode$ ?v0 (innerNode$ ?v1 ?v2 ?v3) ?v4) ?v5) (ite (member$ ?v5 (alphabet$ (innerNode$ ?v1 ?v2 ?v3))) (sibling$ (innerNode$ ?v1 ?v2 ?v3) ?v5) (ite (member$ ?v5 (alphabet$ ?v4)) (sibling$ ?v4 ?v5) ?v5))) :pattern ((sibling$ (innerNode$ ?v0 (innerNode$ ?v1 ?v2 ?v3) ?v4) ?v5)))) :named a17))
(assert (! (forall ((?v0 Nat$) (?v1 Nat$) (?v2 A$) (?v3 Nat$) (?v4 A$) (?v5 A$)) (! (= (sibling$ (innerNode$ ?v0 (leaf$ ?v1 ?v2) (leaf$ ?v3 ?v4)) ?v5) (ite (= ?v5 ?v2) ?v4 (ite (= ?v5 ?v4) ?v2 ?v5))) :pattern ((sibling$ (innerNode$ ?v0 (leaf$ ?v1 ?v2) (leaf$ ?v3 ?v4)) ?v5)))) :named a18))
(check-sat)
;(get-unsat-core)
